p cnf 664
-11 -207
-12 -210
-13 -213
-14 -216
-15 -219
-16 -222
-17 -225
-18 -228
-19 -231
-20 -234
-21 235
-22 236
-23 237
-24 238
-25 239
-26 -12
-26 -13
12 13 26
-27 -14
-27 -15
14 15 27
-28 -16
-28 -17
16 17 28
-29 -18
-29 -19
18 19 29
-30 -20
-30 -21
20 21 30
-31 -22
-31 -23
22 23 31
-32 -24
-32 -25
24 25 32
-33 26
-33 27
-26 -27 33
-34 28
-34 29
-28 -29 34
-35 30
-35 31
-30 -31 35
-36 33
-36 34
-33 -34 36
-37 32
-37 35
-32 -35 37
-38 36
-38 37
-36 -37 38
-39 -11
-39 12
11 -12 39
-40 11
-40 -12
-11 12 40
-41 -39
-41 -40
39 40 41
-42 11
-42 12
-11 -12 42
-43 -11
-43 -41
11 41 43
-44 11
-44 41
-11 -41 44
-45 -43
-45 -44
43 44 45
-46 11
-46 -41
-11 41 46
-47 -42
-47 -46
42 46 47
-48 -12
-48 13
12 -13 48
-49 12
-49 -13
-12 13 49
-50 -48
-50 -49
48 49 50
-51 12
-51 13
-12 -13 51
-52 47
-52 -50
-47 50 52
-53 -47
-53 50
47 -50 53
-54 -52
-54 -53
52 53 54
-55 -47
-55 -50
47 50 55
-56 -51
-56 -55
51 55 56
-57 -13
-57 14
13 -14 57
-58 13
-58 -14
-13 14 58
-59 -57
-59 -58
57 58 59
-60 13
-60 14
-13 -14 60
-61 56
-61 -59
-56 59 61
-62 -56
-62 59
56 -59 62
-63 -61
-63 -62
61 62 63
-64 -56
-64 -59
56 59 64
-65 -60
-65 -64
60 64 65
-66 -14
-66 15
14 -15 66
-67 14
-67 -15
-14 15 67
-68 -66
-68 -67
66 67 68
-69 14
-69 15
-14 -15 69
-70 65
-70 -68
-65 68 70
-71 -65
-71 68
65 -68 71
-72 -70
-72 -71
70 71 72
-73 -65
-73 -68
65 68 73
-74 -69
-74 -73
69 73 74
-75 -15
-75 16
15 -16 75
-76 15
-76 -16
-15 16 76
-77 -75
-77 -76
75 76 77
-78 15
-78 16
-15 -16 78
-79 74
-79 -77
-74 77 79
-80 -74
-80 77
74 -77 80
-81 -79
-81 -80
79 80 81
-82 -74
-82 -77
74 77 82
-83 -78
-83 -82
78 82 83
-84 -16
-84 17
16 -17 84
-85 16
-85 -17
-16 17 85
-86 -84
-86 -85
84 85 86
-87 16
-87 17
-16 -17 87
-88 83
-88 -86
-83 86 88
-89 -83
-89 86
83 -86 89
-90 -88
-90 -89
88 89 90
-91 -83
-91 -86
83 86 91
-92 -87
-92 -91
87 91 92
-93 -17
-93 18
17 -18 93
-94 17
-94 -18
-17 18 94
-95 -93
-95 -94
93 94 95
-96 17
-96 18
-17 -18 96
-97 92
-97 -95
-92 95 97
-98 -92
-98 95
92 -95 98
-99 -97
-99 -98
97 98 99
-100 -92
-100 -95
92 95 100
-101 -96
-101 -100
96 100 101
-102 -18
-102 19
18 -19 102
-103 18
-103 -19
-18 19 103
-104 -102
-104 -103
102 103 104
-105 18
-105 19
-18 -19 105
-106 101
-106 -104
-101 104 106
-107 -101
-107 104
101 -104 107
-108 -106
-108 -107
106 107 108
-109 -101
-109 -104
101 104 109
-110 -105
-110 -109
105 109 110
-111 -19
-111 20
19 -20 111
-112 19
-112 -20
-19 20 112
-113 -111
-113 -112
111 112 113
-114 19
-114 20
-19 -20 114
-115 110
-115 -113
-110 113 115
-116 -110
-116 113
110 -113 116
-117 -115
-117 -116
115 116 117
-118 -110
-118 -113
110 113 118
-119 -114
-119 -118
114 118 119
-120 -20
-120 21
20 -21 120
-121 20
-121 -21
-20 21 121
-122 -120
-122 -121
120 121 122
-123 20
-123 21
-20 -21 123
-124 119
-124 -122
-119 122 124
-125 -119
-125 122
119 -122 125
-126 -124
-126 -125
124 125 126
-127 -119
-127 -122
119 122 127
-128 -123
-128 -127
123 127 128
-129 -21
-129 22
21 -22 129
-130 21
-130 -22
-21 22 130
-131 -129
-131 -130
129 130 131
-132 21
-132 22
-21 -22 132
-133 128
-133 -131
-128 131 133
-134 -128
-134 131
128 -131 134
-135 -133
-135 -134
133 134 135
-136 -128
-136 -131
128 131 136
-137 -132
-137 -136
132 136 137
-138 -22
-138 23
22 -23 138
-139 22
-139 -23
-22 23 139
-140 -138
-140 -139
138 139 140
-141 22
-141 23
-22 -23 141
-142 137
-142 -140
-137 140 142
-143 -137
-143 140
137 -140 143
-144 -142
-144 -143
142 143 144
-145 -137
-145 -140
137 140 145
-146 -141
-146 -145
141 145 146
-147 -23
-147 24
23 -24 147
-148 23
-148 -24
-23 24 148
-149 -147
-149 -148
147 148 149
-150 23
-150 24
-23 -24 150
-151 146
-151 -149
-146 149 151
-152 -146
-152 149
146 -149 152
-153 -151
-153 -152
151 152 153
-154 -146
-154 -149
146 149 154
-155 -150
-155 -154
150 154 155
-156 -24
-156 25
24 -25 156
-157 24
-157 -25
-24 25 157
-158 -156
-158 -157
156 157 158
-159 24
-159 25
-24 -25 159
-160 155
-160 -158
-155 158 160
-161 -155
-161 158
155 -158 161
-162 -160
-162 -161
160 161 162
-163 -155
-163 -158
155 158 163
-164 -159
-164 -163
159 163 164
-165 11
-165 -45
-11 45 165
-166 -11
-166 13
11 -13 166
-167 -165
-167 -166
165 166 167
-168 11
-168 -54
-11 54 168
-169 -11
-169 14
11 -14 169
-170 -168
-170 -169
168 169 170
-171 11
-171 -63
-11 63 171
-172 -11
-172 15
11 -15 172
-173 -171
-173 -172
171 172 173
-174 11
-174 -72
-11 72 174
-175 -11
-175 16
11 -16 175
-176 -174
-176 -175
174 175 176
-177 11
-177 -81
-11 81 177
-178 -11
-178 17
11 -17 178
-179 -177
-179 -178
177 178 179
-180 11
-180 -90
-11 90 180
-181 -11
-181 18
11 -18 181
-182 -180
-182 -181
180 181 182
-183 11
-183 -99
-11 99 183
-184 -11
-184 19
11 -19 184
-185 -183
-185 -184
183 184 185
-186 11
-186 -108
-11 108 186
-187 -11
-187 20
11 -20 187
-188 -186
-188 -187
186 187 188
-189 11
-189 -117
-11 117 189
-190 -11
-190 21
11 -21 190
-191 -189
-191 -190
189 190 191
-192 11
-192 -126
-11 126 192
-193 -11
-193 22
11 -22 193
-194 -192
-194 -193
192 193 194
-195 11
-195 -135
-11 135 195
-196 -11
-196 23
11 -23 196
-197 -195
-197 -196
195 196 197
-198 11
-198 -144
-11 144 198
-199 -11
-199 24
11 -24 199
-200 -198
-200 -199
198 199 200
-201 11
-201 -153
-11 153 201
-202 -11
-202 25
11 -25 202
-203 -201
-203 -202
201 202 203
-204 11
-204 -162
-11 162 204
-205 1
-205 38
-1 -38 205
-206 -38
-206 39
38 -39 206
-207 -205
-207 -206
205 206 207
-208 2
-208 38
-2 -38 208
-209 -38
-209 -167
38 167 209
-210 -208
-210 -209
208 209 210
-211 3
-211 38
-3 -38 211
-212 -38
-212 -170
38 170 212
-213 -211
-213 -212
211 212 213
-214 4
-214 38
-4 -38 214
-215 -38
-215 -173
38 173 215
-216 -214
-216 -215
214 215 216
-217 5
-217 38
-5 -38 217
-218 -38
-218 -176
38 176 218
-219 -217
-219 -218
217 218 219
-220 6
-220 38
-6 -38 220
-221 -38
-221 -179
38 179 221
-222 -220
-222 -221
220 221 222
-223 7
-223 38
-7 -38 223
-224 -38
-224 -182
38 182 224
-225 -223
-225 -224
223 224 225
-226 8
-226 38
-8 -38 226
-227 -38
-227 -185
38 185 227
-228 -226
-228 -227
226 227 228
-229 9
-229 38
-9 -38 229
-230 -38
-230 -188
38 188 230
-231 -229
-231 -230
229 230 231
-232 10
-232 38
-10 -38 232
-233 -38
-233 -191
38 191 233
-234 -232
-234 -233
232 233 234
-235 -38
-235 -194
38 194 235
-236 -38
-236 -197
38 197 236
-237 -38
-237 -200
38 200 237
-238 -38
-238 -203
38 203 238
-239 -38
-239 204
38 -204 239
-240 -25
-240 164
25 -164 240
-241 11
-241 -240
-11 240 241
241
